NAME: tsp40_14
COMMENT: 40-tsp problem (Padberg/Rinaldi)
TYPE: TSP
DIMENSION: 40
EDGE_WEIGHT_TYPE : EUC_2D
NODE_COORD_SECTION
1 28 39
2 14 23
3 4 34
4 35 28
5 0 0
6 29 29
7 12 19
8 25 12
9 32 6
10 26 32
11 33 20
12 23 3
13 31 23
14 18 25
15 23 29
16 19 21
17 33 31
18 15 25
19 20 29
20 37 2
21 6 32
22 26 12
23 23 14
24 7 9
25 39 29
26 22 25
27 35 4
28 22 24
29 14 8
30 8 1
31 2 37
32 38 2
33 11 23
34 39 5
35 1 0
36 30 1
37 35 7
38 19 32
39 8 21
40 31 33
